NAME : swiss42-R-3-2-b.0329_2252.tour
COMMENT : Found by CTSP-d POMO Model Sun Mar 29 22:52:55 2026
TYPE : TOUR
DIMENSION : 42
TOUR_SECTION
28
4
3
29
1
38
16
17
15
20
14
6
27
19
13
12
26
11
42
24
10
41
22
25
40
23
39
34
35
21
36
37
32
18
8
2
7
5
9
30
31
33
-1
EOF
